qe/outputs/qe/qe_queries_wdomain/T=5,eliminate=[I_0,I_1,I_2,I_3,I_4,B].smt2
; benchmark generated from python API
(set-info :status unknown)
(declare-fun L_0 () Real)
(declare-fun C () Real)
(declare-fun A_0 () Real)
(declare-fun S_4 () Real)
(declare-fun L_2 () Real)
(declare-fun A_2 () Real)
(declare-fun S_3 () Real)
(declare-fun A_1 () Real)
(declare-fun L_1 () Real)
(declare-fun S_2 () Real)
(declare-fun A_3 () Real)
(declare-fun L_3 () Real)
(declare-fun S_0 () Real)
(declare-fun S_1 () Real)
(declare-fun L_4 () Real)
(declare-fun A_4 () Real)
(assert
 (let (($x1195 (>= C 5.0)))
 (let (($x12004 (not (<= 0.0 (+ L_1 S_0 (* (- 1.0) A_0))))))
 (let (($x1705 (<= (+ (* (- 1.0) C) (* (- 1.0) L_1) A_1 L_0 (* (- 1.0) A_0)) 0.0)))
 (let (($x1463 (not $x1705)))
 (let ((?x697 (* (- 1.0) L_0)))
 (let ((?x706 (* (- 1.0) L_1)))
 (let (($x558 (= ?x706 ?x697)))
 (let ((?x727 (* (- 1.0) A_3)))
 (let ((?x1352 (* (- 1.0) S_1)))
 (let ((?x906 (* 3.0 C)))
 (let ((?x1351 (* 2.0 A_0)))
 (let (($x1659 (<= (+ A_2 (* (- 1.0) L_2) C ?x706 ?x1352 L_3 A_0 ?x727) 0.0)))
 (let (($x1386 (<= (+ A_0 C ?x697 L_1 (* (- 1.0) A_1)) 0.0)))
 (let (($x877 (not $x1386)))
 (let ((?x718 (* (- 1.0) A_2)))
 (let ((?x911 (* 2.0 C)))
 (let ((?x1387 (+ A_0 ?x911 ?x697 L_2 ?x718)))
 (let (($x570 (<= 0.0 ?x1387)))
 (let (($x568 (not $x570)))
 (let (($x3323 (<= (+ A_1 ?x911 (* (- 1.0) L_2) L_3 ?x727) 0.0)))
 (let (($x1388 (<= ?x1387 0.0)))
 (let (($x753 (not $x1388)))
 (let (($x2049 (<= (+ (* (- 1.0) L_3) A_3 (* (- 3.0) C) (* (- 1.0) A_0) L_0) 0.0)))
 (let (($x1698 (<= (+ (* (- 1.0) C) A_4 (* (- 1.0) L_4) L_3 ?x727) 0.0)))
 (let (($x1475 (not $x1698)))
 (let (($x1703 (<= (+ A_2 (* (- 1.0) L_2) (* (- 1.0) C) L_1 (* (- 1.0) A_1)) 0.0)))
 (let (($x1455 (not $x1703)))
 (let (($x1378 (<= (+ (* (- 1.0) C) L_2 (* (- 1.0) L_3) ?x718 A_3) 0.0)))
 (let (($x1241 (not $x1378)))
 (let ((?x724 (* (- 1.0) L_3)))
 (let ((?x695 (* (- 1.0) L_4)))
 (let (($x620 (= ?x695 ?x724)))
 (let (($x8068 (<= (+ ?x1351 (* 4.0 C) ?x697 ?x1352 (* (- 1.0) A_4) L_4 ?x706) 0.0)))
 (let ((?x759 (* (- 1.0) A_4)))
 (let ((?x715 (* (- 1.0) L_2)))
 (let (($x4004 (<= (+ A_2 ?x715 ?x911 ?x706 ?x1352 ?x759 L_4 A_0) 0.0)))
 (let (($x1390 (<= (+ A_0 ?x906 ?x697 L_3 ?x727) 0.0)))
 (let (($x1329 (not $x1390)))
 (let (($x3074 (<= (+ ?x706 A_1 ?x906 ?x759 L_4) 0.0)))
 (let (($x2445 (<= (+ ?x724 A_3 (* (- 1.0) A_0) L_0 ?x759 L_4 ?x706 A_1) 0.0)))
 (let (($x2051 (<= (+ ?x724 A_3 (* (- 2.0) C) L_1 (* (- 1.0) A_1)) 0.0)))
 (let (($x1986 (not $x2051)))
 (let (($x624 (= ?x724 ?x715)))
 (let (($x3072 (<= (+ ?x706 A_1 ?x911 L_3 ?x727) 0.0)))
 (let (($x2426 (<= (+ ?x724 A_3 C A_0 ?x1352 ?x759 L_4 ?x706) 0.0)))
 (let (($x1672 (<= (+ A_2 ?x715 C L_3 ?x727) 0.0)))
 (let (($x4216 (<= (+ A_2 ?x715 C (* (- 1.0) A_0) L_0 ?x759 L_4 ?x724 A_1) 0.0)))
 (let (($x4144 (<= (+ A_2 ?x715 C (* (- 1.0) A_0) L_0 ?x759 A_1) 0.0)))
 (let (($x4205 (not $x4144)))
 (let (($x2437 (<= (+ (* (- 2.0) L_3) A_3 (* (- 1.0) A_0) L_0 ?x759 L_4 A_1) 0.0)))
 (let (($x23667 (or $x1241 $x1388 (not (<= (+ ?x724 A_3 (* (- 1.0) A_0) L_0 ?x759 A_1) 0.0)) $x2437)))
 (let (($x2413 (<= (+ ?x724 A_3 (* (- 1.0) A_0) L_0 ?x759 A_1) 0.0)))
 (let ((?x709 (* (- 1.0) A_1)))
 (let ((?x1355 (* (- 1.0) C)))
 (let ((?x783 (* (- 1.0) A_0)))
 (let ((?x1348 (* (- 2.0) C)))
 (let (($x5703 (<= (+ ?x718 L_2 ?x1348 L_1 S_0 A_4 ?x695 ?x783) 0.0)))
 (let (($x14496 (or $x558 $x5703 (<= (+ ?x718 L_2 ?x1355 A_0 ?x697 ?x695 L_1 ?x709 A_4) 0.0))))
 (let (($x1663 (<= (+ ?x718 L_2 ?x1355 L_1 S_0 ?x724 ?x783 A_3) 0.0)))
 (let (($x24086 (or $x558 $x1663 (<= (+ ?x718 L_2 A_0 ?x697 ?x724 L_1 ?x709 A_3) 0.0))))
 (let (($x622 (= ?x715 ?x706)))
 (let (($x11608 (not $x622)))
 (let (($x628 (= ?x724 ?x706)))
 (let (($x23850 (or $x628 $x1388 (<= (+ A_2 ?x715 ?x783 L_0 L_3 ?x706 A_1 ?x727) 0.0) $x11608)))
 (let (($x16258 (or $x568 $x628 $x877 (<= (+ A_2 ?x715 C ?x1352 ?x695 L_3 A_0 ?x727) 0.0))))
 (let (($x3574 (<= (+ L_3 ?x727 ?x706 A_1 A_4 ?x695 L_2 ?x718) 0.0)))
 (let (($x2036 (<= (+ L_3 ?x727 C A_0 ?x697 A_4 ?x695 L_2 ?x718) 0.0)))
 (let (($x2943 (<= (+ (* (- 2.0) L_1) A_1 C ?x1352 L_2 A_0 ?x718) 0.0)))
 (let (($x5711 (<= (+ (* (- 2.0) L_1) A_1 ?x906 ?x1352 ?x759 L_4 A_0) 0.0)))
 (let (($x1372 (<= (+ ?x1355 ?x695 L_2 ?x718 A_3) 0.0)))
 (let (($x3436 (<= (+ (* (- 2.0) L_1) A_1 ?x911 ?x1352 L_3 A_0 ?x727) 0.0)))
 (let (($x23557 (or $x620 $x1386 (not (<= (+ (* (- 3.0) C) A_4 ?x695 L_1 ?x709) 0.0)) $x1672 $x2426)))
 (let (($x8070 (<= (+ (* (- 2.0) A_0) (* (- 4.0) C) L_0 S_0 A_4 ?x695 L_1) 0.0)))
 (let (($x1694 (<= (+ (* (- 3.0) C) A_4 ?x695 L_1 ?x709) 0.0)))
 (let (($x2439 (<= (+ (* (- 2.0) L_3) A_3 ?x1355 ?x783 L_0 ?x759 L_4 A_2) 0.0)))
 (let (($x15199 (or $x877 (not (<= (+ ?x724 A_3 ?x1355 ?x783 L_0 ?x759 A_2) 0.0)) $x2439 $x8068)))
 (let (($x2419 (<= (+ ?x724 A_3 ?x1355 ?x783 L_0 ?x759 A_2) 0.0)))
 (let (($x1354 (<= (+ ?x1351 ?x911 ?x697 ?x1352 ?x706 L_2 ?x718) 0.0)))
 (let (($x1473 (<= (+ A_2 ?x715 C (* (- 1.0) S_4)) 0.0)))
 (let (($x8983 (or $x877 $x1329 (<= (+ (* (- 1.0) S_4) A_0 ?x906 ?x697) 0.0) $x1473)))
 (let (($x22838 (or $x570 $x628 $x1705 (<= (+ ?x1351 ?x906 ?x697 ?x1352 L_3 ?x706 ?x727) 0.0) $x11608)))
 (let (($x22955 (or $x2049 (not (<= (+ A_2 ?x911 ?x759) 0.0)) (<= (+ A_2 ?x911 ?x759 L_4 ?x724) 0.0))))
 (let (($x8315 (<= (+ (* (- 2.0) A_0) (* (- 3.0) C) L_0 S_0 L_1 ?x724 A_3) 0.0)))
 (let (($x13857 (or $x620 $x1390 (<= (+ ?x724 A_3 ?x1355 ?x783 L_0 ?x759 L_4 ?x715 A_2) 0.0))))
 (let (($x22925 (or $x558 (<= (+ (* (- 2.0) A_0) ?x1348 L_0 S_0 L_1 ?x715 A_2) 0.0) $x1703)))
 (let (($x6904 (or (<= (+ A_0 ?x911 ?x697 (* (- 1.0) S_3)) 0.0) (<= (+ A_2 ?x715 (* (- 1.0) S_3)) 0.0) (<= (+ ?x706 A_1 C (* (- 1.0) S_3)) 0.0))))
 (let (($x2424 (<= (+ L_3 ?x727 ?x1355 ?x783 S_0 A_4 ?x695 L_1) 0.0)))
 (let (($x23519 (or $x558 $x2424 (<= (+ L_3 ?x727 A_0 ?x697 A_4 ?x695 L_1 ?x709) 0.0))))
 (let (($x23193 (or $x620 $x1386 (not (<= (+ A_2 ?x715 ?x911 ?x759 L_4) 0.0)) (not $x3574) $x5711)))
 (let (($x4002 (<= (+ A_2 ?x715 ?x911 ?x759 L_4) 0.0)))
 (let (($x15154 (or $x620 (<= (+ ?x724 A_3 L_1 ?x709 ?x759 L_4 ?x715 A_2) 0.0) $x4002)))
 (let (($x5665 (<= (+ (* 2.0 L_1) ?x709 (* (- 3.0) C) S_0 A_4 ?x695 ?x783) 0.0)))
 (let (($x23851 (or $x628 (not (<= (+ C ?x706 L_2 A_1 ?x718) 0.0)) $x1386 $x3436 $x11608)))
 (let (($x16270 (or $x620 (<= (+ (* (- 2.0) L_3) A_3 C L_1 ?x759 L_4) 0.0))))
 (let (($x4397 (or $x1386 $x1473 $x2051 (<= (+ ?x706 A_1 ?x911 (* (- 1.0) S_4)) 0.0))))
 (let (($x11331 (or $x558 $x1386 (<= (+ (* 2.0 L_1) ?x709 ?x1348 S_0 ?x724 ?x783 A_3) 0.0))))
 (let (($x11256 (or $x558 $x1386 (<= (+ (* 2.0 L_1) ?x709 ?x1355 S_0 ?x715 ?x783 A_2) 0.0))))
 (let (($x23069 (or (not (<= (+ A_2 ?x715 C L_1 ?x727) 0.0)) (<= (+ A_2 (* (- 2.0) L_2) C L_1 L_3 ?x727) 0.0))))
 (let (($x839 (or (<= (+ A_0 C ?x697 (* (- 1.0) S_2)) 0.0) (<= (+ ?x706 A_1 (* (- 1.0) S_2)) 0.0))))
 (let (($x41 (>= A_1 A_0)))
 (let (($x42 (>= A_2 A_1)))
 (let (($x43 (>= A_3 A_2)))
 (let (($x44 (>= A_4 A_3)))
 (and (<= ?x706 ?x697) $x44 $x43 $x42 $x41 (<= ?x695 ?x724) (<= ?x724 ?x715) $x839 (or $x622 $x1354 $x1705) (<= ?x715 ?x706) (or $x622 (<= (+ C ?x706 L_2 A_1 ?x718) 0.0)) (or $x568 $x622 $x877) (or $x624 (<= (+ A_2 ?x715 C L_1 ?x727) 0.0)) (or $x622 (<= (+ ?x1348 A_4 ?x695 L_2 ?x718) 0.0)) (or $x622 $x1705 $x2036) $x23069 $x11256 $x11331 (or $x558 $x1386 $x2424) (or $x628 $x1698 $x11608) $x4397 (or $x622 $x1386 $x1455) (or $x622 $x1386 $x2943) (or $x622 $x1378) (or $x620 $x2051 $x4002) (or $x624 $x1672) (or $x558 $x1386 $x1663) $x16270 (or $x628 (<= (+ C ?x706 L_2 A_1 ?x718) 0.0) $x1386 $x1659) (or $x628 $x1386 $x1703 $x3436 $x11608) (or (not $x1372) $x1378 (<= (+ ?x724 A_3 C ?x759 L_4) 0.0)) (or $x620 (<= (+ ?x724 A_3 C ?x759 L_4) 0.0)) $x23851 (or $x622 $x1386 $x3574) (or $x558 $x1386 $x5703) (or $x558 $x1386 $x5665) (or $x620 $x1386 $x1703 $x2051 $x5711) $x15154 (or $x620 $x1386 $x1703 $x2426 $x3072) $x23193 $x23519 (or $x558 $x1463 $x1663) $x6904 (or $x1388 $x1473 $x1986 (<= (+ ?x724 A_3 (* (- 1.0) S_4)) 0.0)) $x22925 $x13857 (or $x570 $x620 $x1390 $x1705 $x2426) (or $x558 $x2051 $x8070) (or $x558 $x2051 $x8315) (or $x620 $x2049 (<= (+ A_2 ?x911 ?x759) 0.0)) $x22955 (or $x570 $x620 $x1705 $x2049 $x8068) $x22838 (or $x628 $x877 $x1388 $x1659) (or $x558 $x1463 $x5703) $x8983 (or $x877 $x1354 (not (<= (+ ?x911 ?x1351 ?x697 ?x1352 ?x718) 0.0))) (or $x620 $x877 $x2419 $x8068) $x15199 (or $x570 $x620 $x877 $x2426 $x8068) (or $x620 $x1329 $x4002) (or $x570 $x620 $x1475 $x3074) (or $x558 $x1694 $x8070) $x23557 (or $x620 $x1386 $x2426 $x4004 $x5711) (or $x620 $x1241 $x1386 $x1455 $x1475) (or $x558 $x1386 $x12004) (or $x620 $x753 $x1372 (<= (+ C ?x706 L_2 A_1 ?x718) 0.0) $x8068) (or $x624 $x1463 $x1659 $x3436) (or (not $x1372) $x1378 $x4004 $x5711 $x8068) (or $x620 $x1372 $x4004 $x5711 $x8068) (or $x622 $x1463 $x2943) (or $x622 $x2036 $x3574) $x16258 (or $x570 $x624 (<= (+ A_1 ?x911 ?x695 L_3 ?x727) 0.0)) (or $x570 $x624 $x3323) $x23850 $x24086 (or $x1378 $x1388 $x4205 $x4216) $x14496 (or $x620 $x1388 $x2413 $x4144) $x23667 (or $x620 $x1241 (<= (+ C ?x706 L_2 A_1 ?x718) 0.0) $x1388 $x2426) (or $x628 $x1241 $x1388 (not $x1672) $x1986) (or $x620 $x1241 (<= (+ C ?x706 L_2 A_1 ?x718) 0.0) $x1475) (or $x620 $x1378 $x3074 $x4144) (or $x1378 $x3074 $x4205 $x4216) (or $x624 $x753 (<= (+ A_1 ?x911 ?x695 L_3 ?x727) 0.0)) (or $x570 $x620 $x2049 $x3074) (or $x570 $x620 $x1329 $x3074) (or $x620 $x1390 $x1672 $x2445) (or $x620 (<= (+ C ?x706 L_2 A_1 ?x718) 0.0) $x1390 $x1672 $x2426) (or $x1390 $x1672 $x1986 (<= (+ ?x724 A_3 (* (- 1.0) S_4)) 0.0)) (or $x620 $x1463 $x1672 $x2426 $x3072) (or $x620 $x1475 $x1672) (or $x624 $x753 $x1463 $x1986) (or $x620 $x1241 $x2445 $x3074) (or $x620 $x877 $x1329 $x4004 $x8068) (or $x620 $x1241 $x1455 $x1475 (not $x2049)) (or $x753 $x3323 (not (<= (+ A_1 ?x911 ?x727) 0.0))) (or $x568 $x877 $x1659 (not (<= (+ ?x1351 ?x906 ?x697 ?x1352 ?x727) 0.0))) (or $x558 $x1463 $x12004) $x1195 (<= (+ ?x783 ?x1355 L_0 S_1) 0.0) (<= (+ L_1 ?x709 S_1) 0.0) (<= (+ ?x718 L_2 S_2) 0.0) (<= (+ S_4 ?x759 L_4) 0.0) (<= (+ ?x783 (* (- 3.0) C) L_0 S_3) 0.0) (<= (+ ?x1352 S_0) 0.0) (<= (+ ?x783 L_0 S_0) 0.0) (<= (+ ?x783 ?x1348 L_0 S_2) 0.0) (<= (+ L_3 ?x727 S_3) 0.0) (<= (+ L_3 ?x727 S_4 ?x1355) 0.0) (<= (+ L_1 ?x709 ?x1355 S_2) 0.0) (<= (+ L_1 ?x709 ?x1348 S_3) 0.0) (<= (+ L_1 ?x709 (* (- 3.0) C) S_4) 0.0) (<= (+ ?x718 L_2 ?x1355 S_3) 0.0) (<= (+ ?x718 L_2 ?x1348 S_4) 0.0) (<= (+ S_4 ?x783 (* (- 4.0) C) L_0) 0.0))))))))))))))))))))))))))))))))))))))))))))))))))))))))))))))))))))))))))))))))))))))))))))))))))))))))))
(check-sat)
